LatticeConstant 1.0 Ang
%block LatticeVectors
 14.32400000 0.00000000 0.00000000
 0.00000000 16.32201600 0.00000000
 0.00000000 0.00000000 10.81884300
%endblock LatticeVectors

NumberOfAtoms 16
AtomicCoordinatesFormat Ang
%block AtomicCoordinatesAndAtomicSpecies
  1.23000000  0.71000000  0.00000000 1 #  1: C
  2.16200000  1.24900000  0.00000000 2 #  2: H
  0.00000000  1.42000000  0.00000000 1 #  3: C
 -0.00000000  2.82000000  0.00000000 3 #  4: N
 -1.23000000  0.71000000  0.00000000 1 #  5: C
 -2.16200000  1.24900000  0.00000000 2 #  6: H
 -1.23000000 -0.71000000  0.00000000 1 #  7: C
 -2.16200000 -1.24900000  0.00000000 2 #  8: H
 -0.00000000 -1.42000000  0.00000000 1 #  9: C
 -0.00000000 -2.82000000  0.00000000 3 # 10: N
  1.23000000 -0.71000000  0.00000000 1 # 11: C
  2.16200000 -1.24900000  0.00000000 2 # 12: H
 -0.94551900  3.14556800  0.00000000 2 # 13: H
  0.46174600  3.16100800  0.81884300 2 # 14: H
  0.94551900 -3.14556800  0.00000000 2 # 15: H
 -0.46174600 -3.16100800  0.81884300 2 # 16: H
%endblock AtomicCoordinatesAndAtomicSpecies

NumberOfSpecies 3
%block ChemicalSpeciesLabel
 1 6 C
 2 1 H
 3 7 N
%endblock ChemicalSpeciesLabel
